
  32    1
  10

   0   0   6 2 3 5 6 7 10 
   8   1   5 18 14 11 8 4 
   3   4   3 15 12 8 
   4  10   4 30 17 16 9 
   5   9   4 31 18 15 11 
   9   4   3 18 11 8 
   2   7   3 31 15 11 
   8   7   5 30 21 19 17 13 
   2   8   4 31 29 21 13 
   8   4   4 28 23 20 15 
   1   7   3 30 21 13 
   1   7   5 31 28 26 20 17 
   6   5   5 28 27 26 23 20 
   6  10   4 29 28 21 20 
   6   5   3 29 21 19 
   9   7   2 28 19 
   5   6   4 29 27 25 22 
   4   4   4 28 26 25 22 
   3   6   3 26 25 22 
  10   6   2 25 22 
   3  10   2 27 25 
   3   8   1 24 
   3   7   1 24 
   7   6   1 32
   4   5   1 32
  10   3   1 32
   5   4   1 32
   8   6   1 32
   1   4   1 32
   1   3   1 32
   3   7   1 32
   0   0   0 
